c max 128  129  130  131  132  133  134  135  149  151  153  154 0
c ind 291  292  293  296  297  298  301  302  305  306  307  308  311  312  313  314  317  318  319  320  323  324  327  328  329  330  333  334  335  336  337  339  340  341  342  343 0
c This is a CNF SAT formula in the DIMACS CNF format,
c produced with the bc2cnf translator by Tommi Junttila;
c see http://users.ics.aalto.fi/tjunttil/circuits/index.html
c phi_Gamma_det <-> 1
c phi_Gamma <-> 1
c phi_T_transitions <-> 1
c phi_T_transitions_consistency <-> 1
c phi_T <-> 1
c phi_sim_leaves <-> 1
c phi_sim_transition <-> 1
c phi_sim <-> 1
c FORMULA <-> 1
c pi_0 <-> 2
c tau_0_3_approved_1 <-> 128
c tau_0_3_approved_0 <-> 129
c tau_0_2_approved_1 <-> 130
c tau_0_2_approved_0 <-> 131
c tau_0_1_approved_1 <-> 132
c tau_0_1_approved_0 <-> 133
c tau_0_0_approved_1 <-> 134
c tau_0_0_approved_0 <-> 135
c phi_T_feature_det <-> 136
c lam_0_credit_score <-> 149
c lam_0_dependents <-> 151
c lam_0_monthly_income <-> 153
c lam_0_age <-> 154
c phi_Gamma_val <-> 289
c credit_score_P51300 <-> 291
c monthly_income_P608009 <-> 292
c age_P3300 <-> 293
c credit_score_P39900 <-> 296
c monthly_income_P892512 <-> 297
c age_P2400 <-> 298
c credit_score_P63100 <-> 301
c monthly_income_P869694 <-> 302
c credit_score_P84300 <-> 305
c dependents_P400 <-> 306
c monthly_income_P823619 <-> 307
c age_P5200 <-> 308
c credit_score_P40500 <-> 311
c dependents_P600 <-> 312
c monthly_income_P513424 <-> 313
c age_P5800 <-> 314
c credit_score_P62800 <-> 317
c dependents_P200 <-> 318
c monthly_income_P766245 <-> 319
c age_P4100 <-> 320
c credit_score_P76700 <-> 323
c monthly_income_P843317 <-> 324
c credit_score_P39400 <-> 327
c dependents_P0 <-> 328
c monthly_income_P835275 <-> 329
c age_P7100 <-> 330
c pi_approved_1 <-> 333
c approved_P100 <-> 333
c credit_score_P38200 <-> 334
c dependents_P300 <-> 335
c monthly_income_P895152 <-> 336
c age_P6300 <-> 337
c pi_approved_0 <-> 339
c approved_P0 <-> 339
c credit_score_P86900 <-> 340
c dependents_P100 <-> 341
c monthly_income_P475022 <-> 342
c age_P2800 <-> 343
p cnf 343 924
1 0
2 -3 0
2 -6 0
-2 6 3 0
2 0
-3 4 0
-3 58 0
3 -58 -4 0
-4 5 0
-4 149 0
4 -149 -5 0
5 -63 0
5 -95 0
-5 95 63 0
6 -7 0
6 -11 0
-6 11 7 0
-7 8 0
-7 71 0
7 -71 -8 0
-8 9 0
-8 149 0
8 -149 -9 0
9 -10 0
9 -76 0
-9 76 10 0
10 -79 0
10 -92 0
-10 92 79 0
11 -12 0
11 -16 0
-11 16 12 0
-12 13 0
-12 83 0
12 -83 -13 0
-13 14 0
-13 149 0
13 -149 -14 0
14 -15 0
14 -88 0
-14 88 15 0
15 -49 0
15 -66 0
-15 66 49 0
16 -17 0
16 -23 0
-16 23 17 0
-17 18 0
-17 71 0
17 -71 -18 0
-18 19 0
-18 151 0
18 -151 -19 0
19 -20 0
19 -76 0
-19 76 20 0
20 -21 0
20 -88 0
-20 88 21 0
21 -22 0
21 -63 0
-21 63 22 0
22 -53 0
22 -66 0
-22 66 53 0
23 -24 0
23 -30 0
-23 30 24 0
-24 25 0
-24 83 0
24 -83 -25 0
-25 26 0
-25 151 0
25 -151 -26 0
26 -27 0
26 -92 0
-26 92 27 0
27 -28 0
27 -79 0
-27 79 28 0
28 -29 0
28 -96 0
-28 96 29 0
29 -50 0
29 -99 0
-29 99 50 0
30 -31 0
30 -39 0
-30 39 31 0
-31 32 0
-31 71 0
31 -71 -32 0
-32 33 0
-32 153 0
32 -153 -33 0
33 -34 0
33 -76 0
-33 76 34 0
34 -35 0
34 -88 0
-34 88 35 0
35 -36 0
35 -92 0
-35 92 36 0
36 -37 0
36 -63 0
-36 63 37 0
37 -38 0
37 -79 0
-37 79 38 0
38 -49 0
38 -96 0
-38 96 49 0
39 -40 0
39 -43 0
-39 43 40 0
-40 41 0
-40 83 0
40 -83 -41 0
-41 42 0
-41 153 0
41 -153 -42 0
42 -66 0
42 -99 0
-42 99 66 0
43 -44 0
43 -56 0
-43 56 44 0
-44 45 0
-44 48 0
44 -48 -45 0
-45 46 0
-45 47 0
45 -47 -46 0
46 128 0
46 -333 0
-46 333 -128 0
47 129 0
47 -339 0
-47 339 -129 0
-48 49 0
-48 154 0
48 -154 -49 0
49 -50 0
49 -53 0
-49 53 50 0
-50 51 0
-50 327 0
50 -327 -51 0
-51 52 0
-51 328 0
51 -328 -52 0
-52 329 0
-52 330 0
52 -330 -329 0
-53 54 0
-53 334 0
53 -334 -54 0
-54 55 0
-54 335 0
54 -335 -55 0
-55 336 0
-55 337 0
55 -337 -336 0
56 -57 0
56 -69 0
-56 69 57 0
-57 58 0
-57 61 0
57 -61 -58 0
-58 59 0
-58 60 0
58 -60 -59 0
59 130 0
59 -333 0
-59 333 -130 0
60 131 0
60 -339 0
-60 339 -131 0
-61 62 0
-61 154 0
61 -154 -62 0
62 -63 0
62 -66 0
-62 66 63 0
-63 64 0
-63 305 0
63 -305 -64 0
-64 65 0
-64 306 0
64 -306 -65 0
-65 307 0
-65 308 0
65 -308 -307 0
-66 67 0
-66 311 0
66 -311 -67 0
-67 68 0
-67 312 0
67 -312 -68 0
-68 313 0
-68 314 0
68 -314 -313 0
69 -70 0
69 -82 0
-69 82 70 0
-70 71 0
-70 74 0
70 -74 -71 0
-71 72 0
-71 73 0
71 -73 -72 0
72 132 0
72 -333 0
-72 333 -132 0
73 133 0
73 -339 0
-73 339 -133 0
-74 75 0
-74 154 0
74 -154 -75 0
75 -76 0
75 -79 0
-75 79 76 0
-76 77 0
-76 291 0
76 -291 -77 0
-77 78 0
-77 306 0
77 -306 -78 0
-78 292 0
-78 293 0
78 -293 -292 0
-79 80 0
-79 317 0
79 -317 -80 0
-80 81 0
-80 318 0
80 -318 -81 0
-81 319 0
-81 320 0
81 -320 -319 0
-82 83 0
-82 86 0
82 -86 -83 0
-83 84 0
-83 85 0
83 -85 -84 0
84 134 0
84 -333 0
-84 333 -134 0
85 135 0
85 -339 0
-85 339 -135 0
-86 87 0
-86 154 0
86 -154 -87 0
87 -88 0
87 -91 0
-87 91 88 0
-88 89 0
-88 296 0
88 -296 -89 0
-89 90 0
-89 312 0
89 -312 -90 0
-90 297 0
-90 298 0
90 -298 -297 0
91 -92 0
91 -95 0
-91 95 92 0
-92 93 0
-92 301 0
92 -301 -93 0
-93 94 0
-93 318 0
93 -318 -94 0
-94 302 0
-94 343 0
94 -343 -302 0
95 -96 0
95 -99 0
-95 99 96 0
-96 97 0
-96 323 0
96 -323 -97 0
-97 98 0
-97 341 0
97 -341 -98 0
-98 324 0
-98 343 0
98 -343 -324 0
-99 100 0
-99 340 0
99 -340 -100 0
-100 101 0
-100 341 0
100 -341 -101 0
-101 342 0
-101 343 0
101 -343 -342 0
102 149 0
102 -103 0
-102 103 -149 0
102 0
-103 -128 0
-103 -129 0
103 129 128 0
104 151 0
104 -105 0
-104 105 -151 0
104 0
-105 -128 0
-105 106 0
105 -106 128 0
-106 -129 0
-106 107 0
106 -107 129 0
-107 -130 0
-107 -131 0
107 131 130 0
108 -105 0
108 153 0
-108 -153 105 0
108 0
109 149 0
109 -110 0
-109 110 -149 0
109 0
-110 111 0
-110 114 0
110 -114 -111 0
111 -112 0
111 -113 0
-111 113 112 0
-112 -131 0
-112 130 0
112 -130 131 0
-113 -130 0
-113 131 0
113 -131 130 0
-114 115 0
-114 118 0
114 -118 -115 0
115 -116 0
115 -117 0
-115 117 116 0
-116 -133 0
-116 132 0
116 -132 133 0
-117 -132 0
-117 133 0
117 -133 132 0
118 -119 0
118 -120 0
-118 120 119 0
-119 -135 0
-119 134 0
119 -134 135 0
-120 -134 0
-120 135 0
120 -135 134 0
121 151 0
121 -114 0
-121 114 -151 0
121 0
122 153 0
122 -114 0
-122 114 -153 0
122 0
123 154 0
123 -124 0
-123 124 -154 0
123 0
-124 110 0
-124 125 0
124 -125 -110 0
125 -126 0
125 -127 0
-125 127 126 0
-126 -129 0
-126 128 0
126 -128 129 0
-127 -128 0
-127 129 0
127 -129 128 0
136 -137 0
136 -140 0
-136 140 137 0
136 0
-137 -151 0
-137 138 0
137 -138 151 0
-138 -153 0
-138 139 0
138 -139 153 0
-139 -154 0
-139 149 0
139 -149 154 0
140 -141 0
140 -144 0
-140 144 141 0
-141 -149 0
-141 142 0
141 -142 149 0
-142 -153 0
-142 143 0
142 -143 153 0
-143 -154 0
-143 151 0
143 -151 154 0
144 -145 0
144 -148 0
-144 148 145 0
-145 -149 0
-145 146 0
145 -146 149 0
-146 -151 0
-146 147 0
146 -147 151 0
-147 -154 0
-147 153 0
147 -153 154 0
-148 -149 0
-148 150 0
148 -150 149 0
-150 -151 0
-150 152 0
150 -152 151 0
-152 -153 0
-152 154 0
152 -154 153 0
155 339 0
155 333 0
-155 -333 -339 0
155 0
156 296 0
156 291 0
-156 -291 -296 0
156 0
157 301 0
157 -158 0
-157 158 -301 0
157 0
-158 -296 0
-158 -291 0
158 291 296 0
159 305 0
159 -160 0
-159 160 -305 0
159 0
-160 -291 0
-160 161 0
160 -161 291 0
-161 -296 0
-161 -301 0
161 301 296 0
162 311 0
162 -163 0
-162 163 -311 0
162 0
-163 -291 0
-163 164 0
163 -164 291 0
-164 -296 0
-164 165 0
164 -165 296 0
-165 -301 0
-165 -305 0
165 305 301 0
166 317 0
166 -167 0
-166 167 -317 0
166 0
-167 -291 0
-167 168 0
167 -168 291 0
-168 -296 0
-168 169 0
168 -169 296 0
-169 -301 0
-169 170 0
169 -170 301 0
-170 -305 0
-170 -311 0
170 311 305 0
171 323 0
171 -172 0
-171 172 -323 0
171 0
-172 -291 0
-172 173 0
172 -173 291 0
-173 -296 0
-173 174 0
173 -174 296 0
-174 -301 0
-174 175 0
174 -175 301 0
-175 -305 0
-175 176 0
175 -176 305 0
-176 -311 0
-176 -317 0
176 317 311 0
177 327 0
177 -178 0
-177 178 -327 0
177 0
-178 -291 0
-178 179 0
178 -179 291 0
-179 -296 0
-179 180 0
179 -180 296 0
-180 -301 0
-180 181 0
180 -181 301 0
-181 -305 0
-181 182 0
181 -182 305 0
-182 -311 0
-182 183 0
182 -183 311 0
-183 -317 0
-183 -323 0
183 323 317 0
184 334 0
184 -185 0
-184 185 -334 0
184 0
-185 -291 0
-185 186 0
185 -186 291 0
-186 -296 0
-186 187 0
186 -187 296 0
-187 -301 0
-187 188 0
187 -188 301 0
-188 -305 0
-188 189 0
188 -189 305 0
-189 -311 0
-189 190 0
189 -190 311 0
-190 -317 0
-190 191 0
190 -191 317 0
-191 -323 0
-191 -327 0
191 327 323 0
192 340 0
192 -193 0
-192 193 -340 0
192 0
-193 -291 0
-193 194 0
193 -194 291 0
-194 -296 0
-194 195 0
194 -195 296 0
-195 -301 0
-195 196 0
195 -196 301 0
-196 -305 0
-196 197 0
196 -197 305 0
-197 -311 0
-197 198 0
197 -198 311 0
-198 -317 0
-198 199 0
198 -199 317 0
-199 -323 0
-199 200 0
199 -200 323 0
-200 -327 0
-200 -334 0
200 334 327 0
201 312 0
201 306 0
-201 -306 -312 0
201 0
202 318 0
202 -203 0
-202 203 -318 0
202 0
-203 -312 0
-203 -306 0
203 306 312 0
204 328 0
204 -205 0
-204 205 -328 0
204 0
-205 -306 0
-205 206 0
205 -206 306 0
-206 -312 0
-206 -318 0
206 318 312 0
207 335 0
207 -208 0
-207 208 -335 0
207 0
-208 -306 0
-208 209 0
208 -209 306 0
-209 -312 0
-209 210 0
209 -210 312 0
-210 -318 0
-210 -328 0
210 328 318 0
211 341 0
211 -212 0
-211 212 -341 0
211 0
-212 -306 0
-212 213 0
212 -213 306 0
-213 -312 0
-213 214 0
213 -214 312 0
-214 -318 0
-214 215 0
214 -215 318 0
-215 -328 0
-215 -335 0
215 335 328 0
216 297 0
216 292 0
-216 -292 -297 0
216 0
217 302 0
217 -218 0
-217 218 -302 0
217 0
-218 -297 0
-218 -292 0
218 292 297 0
219 307 0
219 -220 0
-219 220 -307 0
219 0
-220 -292 0
-220 221 0
220 -221 292 0
-221 -297 0
-221 -302 0
221 302 297 0
222 313 0
222 -223 0
-222 223 -313 0
222 0
-223 -292 0
-223 224 0
223 -224 292 0
-224 -297 0
-224 225 0
224 -225 297 0
-225 -302 0
-225 -307 0
225 307 302 0
226 319 0
226 -227 0
-226 227 -319 0
226 0
-227 -292 0
-227 228 0
227 -228 292 0
-228 -297 0
-228 229 0
228 -229 297 0
-229 -302 0
-229 230 0
229 -230 302 0
-230 -307 0
-230 -313 0
230 313 307 0
231 324 0
231 -232 0
-231 232 -324 0
231 0
-232 -292 0
-232 233 0
232 -233 292 0
-233 -297 0
-233 234 0
233 -234 297 0
-234 -302 0
-234 235 0
234 -235 302 0
-235 -307 0
-235 236 0
235 -236 307 0
-236 -313 0
-236 -319 0
236 319 313 0
237 329 0
237 -238 0
-237 238 -329 0
237 0
-238 -292 0
-238 239 0
238 -239 292 0
-239 -297 0
-239 240 0
239 -240 297 0
-240 -302 0
-240 241 0
240 -241 302 0
-241 -307 0
-241 242 0
241 -242 307 0
-242 -313 0
-242 243 0
242 -243 313 0
-243 -319 0
-243 -324 0
243 324 319 0
244 336 0
244 -245 0
-244 245 -336 0
244 0
-245 -292 0
-245 246 0
245 -246 292 0
-246 -297 0
-246 247 0
246 -247 297 0
-247 -302 0
-247 248 0
247 -248 302 0
-248 -307 0
-248 249 0
248 -249 307 0
-249 -313 0
-249 250 0
249 -250 313 0
-250 -319 0
-250 251 0
250 -251 319 0
-251 -324 0
-251 -329 0
251 329 324 0
252 342 0
252 -253 0
-252 253 -342 0
252 0
-253 -292 0
-253 254 0
253 -254 292 0
-254 -297 0
-254 255 0
254 -255 297 0
-255 -302 0
-255 256 0
255 -256 302 0
-256 -307 0
-256 257 0
256 -257 307 0
-257 -313 0
-257 258 0
257 -258 313 0
-258 -319 0
-258 259 0
258 -259 319 0
-259 -324 0
-259 260 0
259 -260 324 0
-260 -329 0
-260 -336 0
260 336 329 0
261 298 0
261 293 0
-261 -293 -298 0
261 0
262 308 0
262 -263 0
-262 263 -308 0
262 0
-263 -298 0
-263 -293 0
263 293 298 0
264 314 0
264 -265 0
-264 265 -314 0
264 0
-265 -293 0
-265 266 0
265 -266 293 0
-266 -298 0
-266 -308 0
266 308 298 0
267 320 0
267 -268 0
-267 268 -320 0
267 0
-268 -293 0
-268 269 0
268 -269 293 0
-269 -298 0
-269 270 0
269 -270 298 0
-270 -308 0
-270 -314 0
270 314 308 0
271 330 0
271 -272 0
-271 272 -330 0
271 0
-272 -293 0
-272 273 0
272 -273 293 0
-273 -298 0
-273 274 0
273 -274 298 0
-274 -308 0
-274 275 0
274 -275 308 0
-275 -314 0
-275 -320 0
275 320 314 0
276 337 0
276 -277 0
-276 277 -337 0
276 0
-277 -293 0
-277 278 0
277 -278 293 0
-278 -298 0
-278 279 0
278 -279 298 0
-279 -308 0
-279 280 0
279 -280 308 0
-280 -314 0
-280 281 0
280 -281 314 0
-281 -320 0
-281 -330 0
281 330 320 0
282 343 0
282 -283 0
-282 283 -343 0
282 0
-283 -293 0
-283 284 0
283 -284 293 0
-284 -298 0
-284 285 0
284 -285 298 0
-285 -308 0
-285 286 0
285 -286 308 0
-286 -314 0
-286 287 0
286 -287 314 0
-287 -320 0
-287 288 0
287 -288 320 0
-288 -330 0
-288 -337 0
288 337 330 0
289 -290 0
289 -294 0
-289 294 290 0
289 0
-290 76 0
-290 339 0
290 -339 -76 0
294 -295 0
294 -299 0
-294 299 295 0
-295 88 0
-295 339 0
295 -339 -88 0
299 -300 0
299 -303 0
-299 303 300 0
-300 92 0
-300 339 0
300 -339 -92 0
303 -304 0
303 -309 0
-303 309 304 0
-304 63 0
-304 333 0
304 -333 -63 0
309 -310 0
309 -315 0
-309 315 310 0
-310 66 0
-310 339 0
310 -339 -66 0
315 -316 0
315 -321 0
-315 321 316 0
-316 79 0
-316 333 0
316 -333 -79 0
321 -322 0
321 -325 0
-321 325 322 0
-322 96 0
-322 339 0
322 -339 -96 0
325 -326 0
325 -331 0
-325 331 326 0
-326 50 0
-326 333 0
326 -333 -50 0
331 -332 0
331 -338 0
-331 338 332 0
-332 53 0
-332 333 0
332 -333 -53 0
-338 99 0
-338 339 0
338 -339 -99 0
